p cnf 20 20
-4 11 -14 0
-10 -4 5 0
-18 8 4 0
-6 -5 -17 0
-9 -11 -7 0
14 -1 6 0
3 -20 8 0
-7 -13 -18 0
7 -13 -4 0
-13 -20 -7 0
9 12 13 0
20 -1 -7 0
-18 5 2 0
11 13 12 0
-13 5 4 0
-19 -18 -5 0
1 7 -15 0
-17 -14 10 0
16 -3 -1 0
-6 -17 5 0
